11 29
1 2 0
1 3 1
1 4 1
1 5 1
1 6 1
1 7 1
1 8 1
1 9 0
1 10 1
1 11 1
2 3 0
2 4 1
2 5 1
2 6 0
2 7 1
2 8 0
2 9 0
2 10 0
2 11 0
3 4 1
3 5 0
3 6 0
3 7 1
3 8 1
3 9 0
3 10 1
3 11 0
4 5 1
4 6 0
4 7 1
4 8 0
4 9 0
4 10 1
4 11 1
5 6 1
5 7 0
5 8 1
5 9 0
5 10 1
5 11 1
6 7 1
6 8 0
6 9 0
6 10 0
6 11 1
7 8 1
7 9 0
7 10 0
7 11 0
8 9 0
8 10 1
8 11 1
9 10 0
9 11 0
10 11 1
